analyze/results_flowersnark/final_miplib_symretope_if_extended_generating_set_cpx_v802__settings_final_nosym_norestarts__0__square37.mps.gz.sol
solution status: optimal solution found
objective value:                                   15
x_1_1_9                                             1 	(obj:1)
x_1_10_11                                           1 	(obj:1)
x_1_21_17                                           1 	(obj:1)
x_10_1_5                                            1 	(obj:1)
x_10_6_4                                            1 	(obj:1)
x_12_10_5                                           1 	(obj:1)
x_12_15_6                                           1 	(obj:1)
x_14_6_1                                            1 	(obj:1)
x_14_7_3                                            1 	(obj:1)
x_15_1_6                                            1 	(obj:1)
x_17_7_4                                            1 	(obj:1)
x_17_11_4                                           1 	(obj:1)
x_18_15_3                                           1 	(obj:1)
x_18_18_20                                          1 	(obj:1)
x_21_1_17                                           1 	(obj:1)
y_20                                                1 	(obj:0)
y_17                                                2 	(obj:0)
y_11                                                1 	(obj:0)
y_9                                                 1 	(obj:0)
y_6                                                 2 	(obj:0)
y_5                                                 2 	(obj:0)
y_4                                                 3 	(obj:0)
y_3                                                 2 	(obj:0)
y_1                                                 1 	(obj:0)
