analyze/results_flowersnark/final_miplib_symretope_if_extended_generating_set_cpx_v802__settings_final_nosym_norestarts__0__square37.mps.gz.out
FILENAME:   /home/mcs001/s132664/testsets/IP/miplib2017/square37.mps.gz
SETTINGS:   settings_final_nosym_norestarts
TIMELIMIT:  7200
OUTPUTNAME: final_miplib_symretope_if_extended_generating_set_cpx_v802__settings_final_nosym_norestarts__0__
BINNAME:    bin/sbcs.linux.x86_64.gnu.opt.cpx
BASENAME:   square37.mps.gz
SEED:       0
@01 /home/mcs001/s132664/testsets/IP/miplib2017/square37.mps.gz ===========
@02 square37.mps.gz
@03 1686649264
SCIP version 8.0.2 [precision: 8 byte] [memory: block] [mode: optimized] [LP solver: CPLEX 20.1.0.0] [GitHash: 5f0473c]
Copyright (C) 2002-2022 Konrad-Zuse-Zentrum fuer Informationstechnik Berlin (ZIB)

Symretope propagation methods - (c) Jasper van Doornmalen, Christopher Hojny.
[GitHash: 2fd0484]

reading parameter file <../settings/settings_final_nosym_norestarts.set> ...

Changed settings:
limits/time = 7200
limits/restarts = 0
misc/usesymmetry = 0
constraints/orbisack/sepafreq = -1
constraints/symresack/sepafreq = -1
propagating/symmetry/detectsubgroups = FALSE
propagating/symmetry/usesymretopes = FALSE
propagating/symmetry/relabelsymretopes = 0
propagating/symmetry/ofsymcomptiming = 0
constraints/symretope/sepafreq = -1
constraints/symretope/peek = FALSE


solving problem ...

original problem has 49320 variables (49284 bin, 36 int, 0 impl, 0 cont) and 33150 constraints
presolving:
(round 1, fast)       31710 del vars, 31710 del conss, 0 add conss, 31746 chg bounds, 0 chg sides, 0 chg coeffs, 0 upgd conss, 0 impls, 1369 clqs
(round 2, exhaustive) 31710 del vars, 31710 del conss, 0 add conss, 31746 chg bounds, 0 chg sides, 0 chg coeffs, 1369 upgd conss, 0 impls, 1369 clqs
(round 3, exhaustive) 31710 del vars, 31734 del conss, 0 add conss, 31746 chg bounds, 24 chg sides, 0 chg coeffs, 1369 upgd conss, 0 impls, 1369 clqs
   (34.2s) probing: 1000/17574 (5.7%) - 0 fixings, 0 aggregations, 26364 implications, 0 bound changes
   (34.2s) probing: 1001/17574 (5.7%) - 0 fixings, 0 aggregations, 26395 implications, 0 bound changes
   (34.2s) probing aborted: 1000/1000 successive useless probings
presolving (4 rounds: 4 fast, 3 medium, 3 exhaustive):
 31710 deleted vars, 31734 deleted constraints, 0 added constraints, 31746 tightened bounds, 0 added holes, 24 changed sides, 0 changed coefficients
 26280 implications, 1484 cliques
presolved problem has 17610 variables (17574 bin, 36 int, 0 impl, 0 cont) and 1416 constraints
   1369 constraints of type <setppc>
     47 constraints of type <linear>
transformed objective value is always integral (scale: 1)
Presolving Time: 33.97

 time | node  | left  |LP iter|LP it/n|mem/heur|mdpt |vars |cons |rows |cuts |sepa|confs|strbr|  dualbound   | primalbound  |  gap   | compl. 
p37.5s|     1 |     0 |     0 |     - |  clique|   0 |  17k|1416 |1416 |   0 |  0 |   0 |   0 | 4.000000e+00 | 4.000000e+01 | 900.00%| unknown
 84.7s|     1 |     0 |  1991 |     - |  3190M |   0 |  17k|1430 |1416 |   0 |  0 |  29 |   0 | 8.666667e+00 | 4.000000e+01 | 361.54%| unknown
  301s|     1 |     2 | 23135 |     - |  3195M |   0 |  17k|1430 |1416 |   0 |  2 |  31 |  23 | 8.797756e+00 | 4.000000e+01 | 354.66%| unknown
* 552s|     6 |     5 | 33889 |6381.6 |strongbr|   5 |  17k|1418 |1416 |   0 |  1 |  31 | 137 | 8.882201e+00 | 1.600000e+01 |  80.14%| unknown
 1123s|   100 |    57 |334323 |3357.0 |  3223M |  24 |  17k|1463 |1416 |   0 |  2 | 107 | 265 | 9.665480e+00 | 1.600000e+01 |  65.54%|  14.49%
 1498s|   200 |   111 |541094 |2709.1 |  3272M |  41 |  17k|1574 |1416 |   0 |  2 | 333 | 388 | 1.111964e+01 | 1.600000e+01 |  43.89%|  29.50%
 1636s|   300 |   133 |657015 |2190.7 |  3298M |  48 |  17k|1580 |1416 |   0 |  2 | 413 | 476 | 1.124388e+01 | 1.600000e+01 |  42.30%|  29.88%
*1673s|   339 |    89 |687179 |2027.2 |    LP  |  52 |  17k|1447 |1416 |   0 |  2 | 413 | 489 | 1.124388e+01 | 1.500000e+01 |  33.41%|  36.83%
 1736s|   400 |    92 |749260 |1872.9 |  3306M |  56 |  17k|1448 |1416 |   0 |  0 | 427 | 523 | 1.124388e+01 | 1.500000e+01 |  33.41%|  38.80%
 1800s|   500 |    98 |820314 |1639.9 |  3308M |  58 |  17k|1458 |1416 |   0 |  0 | 445 | 567 | 1.130441e+01 | 1.500000e+01 |  32.69%|  40.16%
 1894s|   600 |   102 |906884 |1510.7 |  3320M |  60 |  17k|1495 |1416 |   0 |  0 | 555 | 622 | 1.136074e+01 | 1.500000e+01 |  32.03%|  41.73%
 2031s|   700 |    98 |  1053k|1504.9 |  3333M |  67 |  17k|1568 |1416 |   0 |  2 | 645 | 707 | 1.142080e+01 | 1.500000e+01 |  31.34%|  47.07%
 2137s|   800 |   102 |  1157k|1445.8 |  3350M |  67 |  17k|1617 |1416 |   0 |  0 | 755 | 781 | 1.186412e+01 | 1.500000e+01 |  26.43%|  51.68%
 2227s|   900 |    98 |  1244k|1382.6 |  3355M |  67 |  17k|1600 |1416 |   0 |  0 | 795 | 843 | 1.207530e+01 | 1.500000e+01 |  24.22%|  55.21%
 2352s|  1000 |    88 |  1359k|1359.3 |  3376M |  67 |  17k|1676 |1416 |   0 |  4 | 960 | 963 | 1.215513e+01 | 1.500000e+01 |  23.40%|  60.81%
 time | node  | left  |LP iter|LP it/n|mem/heur|mdpt |vars |cons |rows |cuts |sepa|confs|strbr|  dualbound   | primalbound  |  gap   | compl. 
 2460s|  1100 |    74 |  1475k|1341.0 |  3399M |  67 |  17k|1780 |1416 |   0 |  2 |1112 |1074 | 1.238140e+01 | 1.500000e+01 |  21.15%|  69.32%
 2529s|  1200 |    50 |  1555k|1296.1 |  3407M |  67 |  17k|1787 |1416 |   0 |  2 |1168 |1142 | 1.249621e+01 | 1.500000e+01 |  20.04%|  81.01%
 2647s|  1300 |     6 |  1662k|1278.3 |  3437M |  67 |  17k|1895 |1416 |   0 |  2 |1500 |1329 | 1.325207e+01 | 1.500000e+01 |  13.19%|  97.57%

SCIP Status        : problem is solved [optimal solution found]
Solving Time (sec) : 2648.40
Solving Nodes      : 1316
Primal Bound       : +1.50000000000000e+01 (3 solutions)
Dual Bound         : +1.50000000000000e+01
Gap                : 0.00 %
SCIP Status        : problem is solved [optimal solution found]
Total Time         :    2653.64
  solving          :    2648.40
  presolving       :      33.97 (included in solving)
  reading          :       5.25
  copying          :       2.76 (13 #copies) (minimal 0.20, maximal 0.23, average 0.21)
Original Problem   :
  Problem name     : square37
  Variables        : 49320 (49284 binary, 36 integer, 0 implicit integer, 0 continuous)
  Constraints      : 33150 initial, 33150 maximal
  Objective        : minimize, 49284 non-zeros (abs.min = 1, abs.max = 1)
Presolved Problem  :
  Problem name     : t_square37
  Variables        : 17610 (17574 binary, 36 integer, 0 implicit integer, 0 continuous)
  Constraints      : 1416 initial, 1897 maximal
  Objective        : minimize, 17430 non-zeros (abs.min = 1, abs.max = 1)
  Nonzeros         : 2657755 constraint, 2159603 clique table
Presolvers         :   ExecTime  SetupTime  Calls  FixedVars   AggrVars   ChgTypes  ChgBounds   AddHoles    DelCons    AddCons   ChgSides   ChgCoefs
  boundshift       :       0.00       0.00      0          0          0          0          0          0          0          0          0          0
  convertinttobin  :       0.00       0.00      0          0          0          0          0          0          0          0          0          0
  domcol           :       0.43       0.00      1          0          0          0          0          0          0          0          0          0
  dualagg          :       0.00       0.00      0          0          0          0          0          0          0          0          0          0
  dualcomp         :       0.00       0.00      0          0          0          0          0          0          0          0          0          0
  dualinfer        :       0.00       0.00      0          0          0          0          0          0          0          0          0          0
  dualsparsify     :       1.98       0.00      1          0          0          0          0          0          0          0          0          0
  gateextraction   :       0.00       0.00      0          0          0          0          0          0          0          0          0          0
  implics          :       0.00       0.00      3          0          0          0          0          0          0          0          0          0
  inttobinary      :       0.00       0.00      4          0          0          0          0          0          0          0          0          0
  qpkktref         :       0.00       0.00      0          0          0          0          0          0          0          0          0          0
  redvub           :       0.00       0.00      0          0          0          0          0          0          0          0          0          0
  sparsify         :       1.11       0.00      1          0          0          0          0          0          0          0          0          0
  stuffing         :       0.00       0.00      0          0          0          0          0          0          0          0          0          0
  trivial          :       0.01       0.00      4          0          0          0          0          0          0          0          0          0
  tworowbnd        :       0.00       0.00      0          0          0          0          0          0          0          0          0          0
  dualfix          :       0.00       0.00      4          0          0          0          0          0          0          0          0          0
  genvbounds       :       0.00       0.00      0          0          0          0          0          0          0          0          0          0
  probing          :      18.38       0.00      1          0          0          0          0          0          0          0          0          0
  pseudoobj        :       0.00       0.00      0          0          0          0          0          0          0          0          0          0
  symmetry         :       0.00       0.00      0          0          0          0          0          0          0          0          0          0
  vbounds          :       0.04       0.00      1          0          0          0          0          0          0          0          0          0
  knapsack         :       0.00       0.00      0          0          0          0          0          0          0          0          0          0
  setppc           :       0.69       0.02      6          0          0          0          0          0          0          0          0          0
  linear           :      10.25       1.90      7      31710          0          0      31746          0      31734          0         24          0
  logicor          :       0.00       0.00      0          0          0          0          0          0          0          0          0          0
  bounddisjunction :       0.00       0.00      0          0          0          0          0          0          0          0          0          0
  benders          :       0.00       0.00      0          0          0          0          0          0          0          0          0          0
  components       :       0.41       0.00      1          0          0          0          0          0          0          0          0          0
  root node        :          -          -      -       1075          -          -       1141          -          -          -          -          -
Constraints        :     Number  MaxNumber  #Separate #Propagate    #EnfoLP    #EnfoRelax  #EnfoPS    #Check   #ResProp    Cutoffs    DomReds       Cuts    Applied      Conss   Children
  benderslp        :          0          0          0          0        814          0          0         37          0          0          0          0          0          0          0
  integral         :          0          0          0          0        814          0          0         37          0          0        552          0          0        911       1360
  knapsack         :          0+         3          0       4552          0          0          0          0         56          0         71          0          0          0          0
  setppc           :       1369+      1391          1      18462          1          0          0         31     722128        111     711419          0          0          0          0
  linear           :         47         47          1      18351          1          0          0          4      91817         20      27868          0          0          0          0
  logicor          :          0+        26          1       1467          0          0          0          0          3          0          6          0          0          0          0
  bounddisjunction :          0+       462          0       2775          0          0          0          0        226          6          9          0          0          0          0
  benders          :          0          0          0          0          1          0          0          5          0          0          0          0          0          0          0
  countsols        :          0          0          0          0          1          0          0          5          0          0          0          0          0          0          0
  components       :          0          0          0          0          0          0          0          0          0          0          0          0          0          0          0
Constraint Timings :  TotalTime  SetupTime   Separate  Propagate     EnfoLP     EnfoPS     EnfoRelax   Check    ResProp    SB-Prop
  benderslp        :       0.00       0.00       0.00       0.00       0.00       0.00       0.00       0.00       0.00       0.00
  integral         :    1036.83       0.00       0.00       0.00    1036.81       0.00       0.00       0.02       0.00       0.00
  knapsack         :       0.01       0.00       0.00       0.00       0.00       0.00       0.00       0.00       0.00       0.00
  setppc           :      17.28       0.02       0.18       5.20       0.00       0.00       0.00       0.13       3.28       8.47
  linear           :       6.12       1.90       0.00       2.99       0.00       0.00       0.00       0.00       0.57       0.65
  logicor          :       0.01       0.00       0.00       0.01       0.00       0.00       0.00       0.00       0.00       0.00
  bounddisjunction :       0.22       0.00       0.00       0.10       0.00       0.00       0.00       0.00       0.07       0.06
  benders          :       0.00       0.00       0.00       0.00       0.00       0.00       0.00       0.00       0.00       0.00
  countsols        :       0.00       0.00       0.00       0.00       0.00       0.00       0.00       0.00       0.00       0.00
  components       :       0.00       0.00       0.00       0.00       0.00       0.00       0.00       0.00       0.00       0.00
Propagators        : #Propagate   #ResProp    Cutoffs    DomReds
  dualfix          :          3          0          0          0
  genvbounds       :          0          0          0          0
  nlobbt           :          0          0          0          0
  obbt             :          0          0          0          0
  probing          :          0          0          0          0
  pseudoobj        :       5054          0          1         32
  redcost          :       3128          0          0     964091
  rootredcost      :          3          0          0        728
  symmetry         :          0          0          0          0
  vbounds          :       6908          0          0          0
Propagator Timings :  TotalTime  SetupTime   Presolve  Propagate    ResProp    SB-Prop
  dualfix          :       0.01       0.00       0.00       0.00       0.00       0.00
  genvbounds       :       0.01       0.00       0.00       0.00       0.00       0.00
  nlobbt           :       0.00       0.00       0.00       0.00       0.00       0.00
  obbt             :       0.00       0.00       0.00       0.00       0.00       0.00
  probing          :      18.38       0.00      18.38       0.00       0.00       0.00
  pseudoobj        :       0.14       0.00       0.00       0.14       0.00       0.00
  redcost          :       4.34       0.00       0.00       4.34       0.00       0.00
  rootredcost      :       0.11       0.00       0.00       0.11       0.00       0.00
  symmetry         :       0.00       0.00       0.00       0.00       0.00       0.00
  vbounds          :       0.08       0.00       0.04       0.04       0.00       0.01
Conflict Analysis  :       Time      Calls    Success    DomReds  Conflicts   Literals    Reconvs ReconvLits   Dualrays   Nonzeros   LP Iters   (pool size: [10000,10000])
  propagation      :       1.47        119        108          -        644     2454.1          1     3366.0          -          -          -
  infeasible LP    :       5.07        108          3          -         10      214.2          0        0.0          3      117.0          0
  bound exceed. LP :     148.27        491        506          -       2621     1645.2         35      313.8         65        1.0       7420
  strong branching :       0.00          0          0          -          0        0.0          0        0.0          -          -          0
  pseudo solution  :       0.00          0          0          -          0        0.0          0        0.0          -          -          -
  applied globally :      83.51          -          -         65       1351      950.7          -          -         68          -          -
  applied locally  :          -          -          -          0         81     3486.7          -          -          0          -          -
Separators         :   ExecTime  SetupTime      Calls  RootCalls    Cutoffs    DomReds  FoundCuts ViaPoolAdd  DirectAdd    Applied ViaPoolApp  DirectApp      Conss
  cut pool         :       0.00          -          0          0          -          -          0          0          -          -          -          -          -    (maximal pool size:          0)
  aggregation      :       2.00       0.00         85          1          0          0          0          0          0          0          0          0          0
  > cmir           :          -          -          -          -          -          -          -          0          0          0          0          0          -
  > flowcover      :          -          -          -          -          -          -          -          0          0          0          0          0          -
  > knapsackcover  :          -          -          -          -          -          -          -          0          0          0          0          0          -
  cgmip            :       0.00       0.00          0          0          0          0          0          0          0          0          0          0          0
  clique           :      19.86       0.00          1          1          0          0          0          0          0          0          0          0          0
  closecuts        :       0.00       0.00          0          0          0          0          0          0          0          0          0          0          0
  convexproj       :       0.00       0.00          0          0          0          0          0          0          0          0          0          0          0
  disjunctive      :       0.00       0.00          0          0          0          0          0          0          0          0          0          0          0
  eccuts           :       0.00       0.00          0          0          0          0          0          0          0          0          0          0          0
  gauge            :       0.00       0.00          0          0          0          0          0          0          0          0          0          0          0
  gomory           :       5.39       0.00         85          1          0          0          0          0          0          0          0          0          0
  > gomorymi       :          -          -          -          -          -          -          -          0          0          0          0          0          -
  > strongcg       :          -          -          -          -          -          -          -          0          0          0          0          0          -
  impliedbounds    :       0.12       0.00         85          1          0          0          0          0          0          0          0          0          0
  interminor       :       0.00       0.00          0          0          0          0          0          0          0          0          0          0          0
  intobj           :       0.00       0.00          0          0          0          0          0          0          0          0          0          0          0
  mcf              :       0.02       0.00          1          1          0          0          0          0          0          0          0          0          0
  minor            :       0.00       0.00          0          0          0          0          0          0          0          0          0          0          0
  mixing           :       0.00       0.00         85          1          0          0          0          0          0          0          0          0          0
  oddcycle         :       0.00       0.00          0          0          0          0          0          0          0          0          0          0          0
  rapidlearning    :       0.01       0.00          0          0          0          0          0          0          0          0          0          0          0
  rlt              :       0.00       0.00          1          1          0          0          0          0          0          0          0          0          0
  zerohalf         :       0.71       0.00         85          1          0          0          0          0          0          0          0          0          0
Cutselectors       :   ExecTime  SetupTime      Calls  RootCalls   Selected     Forced   Filtered  RootSelec   RootForc   RootFilt 
  hybrid           :       0.00       0.00          0          0          0          0          0          0          0          0
Pricers            :   ExecTime  SetupTime      Calls       Vars
  problem variables:       0.00          -          0          0
Branching Rules    :   ExecTime  SetupTime   BranchLP  BranchExt   BranchPS    Cutoffs    DomReds       Cuts      Conss   Children
  allfullstrong    :       0.00       0.00          0          0          0          0          0          0          0          0
  cloud            :       0.00       0.00          0          0          0          0          0          0          0          0
  distribution     :       0.00       0.00          0          0          0          0          0          0          0          0
  fullstrong       :       0.00       0.00          0          0          0          0          0          0          0          0
  inference        :       0.00       0.00          0          0          0          0          0          0          0          0
  leastinf         :       0.00       0.00          0          0          0          0          0          0          0          0
  lookahead        :       0.00       0.00          0          0          0          0          0          0          0          0
  mostinf          :       0.00       0.00          0          0          0          0          0          0          0          0
  multaggr         :       0.00       0.00          0          0          0          0          0          0          0          0
  nodereopt        :       0.00       0.00          0          0          0          0          0          0          0          0
  pscost           :       0.00       0.00          0          0          0          0          0          0          0          0
  random           :       0.00       0.00          0          0          0          0          0          0          0          0
  relpscost        :    1036.81       0.00        813          0          0          0        552          0       1038       1360
  vanillafullstrong:       0.00       0.00          0          0          0          0          0          0          0          0
Primal Heuristics  :   ExecTime  SetupTime      Calls      Found       Best
  LP solutions     :       0.01          -          -          1          1
  relax solutions  :       0.00          -          -          0          0
  pseudo solutions :       0.00          -          -          0          0
  strong branching :       0.02          -          -          1          1
  actconsdiving    :       0.00       0.00          0          0          0
  adaptivediving   :       3.89       0.00          6          0          0
  alns             :       5.53       0.00          5          0          0
  bound            :       0.00       0.00          0          0          0
  clique           :       0.81       0.00          1          1          1
  coefdiving       :       0.00       0.00          0          0          0
  completesol      :       0.00       0.00          0          0          0
  conflictdiving   :      12.35       0.00          4          0          0
  crossover        :       0.32       0.00          1          0          0
  dins             :       0.00       0.00          0          0          0
  distributiondivin:       8.08       0.00          3          0          0
  dps              :       0.00       0.00          0          0          0
  dualval          :       0.00       0.00          0          0          0
  farkasdiving     :       0.00       0.00          0          0          0
  feaspump         :     142.83       0.00          2          0          0
  fixandinfer      :       0.00       0.00          0          0          0
  fracdiving       :       3.51       0.00          3          0          0
  gins             :       0.52       0.00          0          0          0
  guideddiving     :       3.01       0.00          3          0          0
  indicator        :       0.00       0.00          0          0          0
  intdiving        :       0.00       0.00          0          0          0
  intshifting      :       0.00       0.00          0          0          0
  linesearchdiving :       1.87       0.00          3          0          0
  localbranching   :       0.00       0.00          0          0          0
  locks            :       0.29       0.00          1          0          0
  lpface           :       0.00       0.00          0          0          0
  mpec             :       0.00       0.00          0          0          0
  multistart       :       0.00       0.00          0          0          0
  mutation         :       0.00       0.00          0          0          0
  nlpdiving        :       0.00       0.00          0          0          0
  objpscostdiving  :      81.21       0.00          2          0          0
  octane           :       0.00       0.00          0          0          0
  ofins            :       0.00       0.00          0          0          0
  oneopt           :       0.15       0.00          3          0          0
  padm             :       0.00       0.00          0          0          0
  proximity        :       0.00       0.00          0          0          0
  pscostdiving     :       6.53       0.00          4          0          0
  randrounding     :       1.73       0.00         24          0          0
  rens             :       0.28       0.00          1          0          0
  reoptsols        :       0.00       0.00          0          0          0
  repair           :       0.00       0.00          0          0          0
  rins             :       1.97       0.00          6          0          0
  rootsoldiving    :      34.77       0.00          2          0          0
  rounding         :       2.26       0.00        346          0          0
  shiftandpropagate:       0.00       0.00          0          0          0
  shifting         :       3.37       0.00         80          0          0
  simplerounding   :       0.00       0.00          0          0          0
  subnlp           :       0.00       0.00          0          0          0
  trivial          :       0.08       0.00          2          0          0
  trivialnegation  :       0.00       0.00          0          0          0
  trustregion      :       0.00       0.00          0          0          0
  trysol           :       0.00       0.00          0          0          0
  twoopt           :       0.00       0.00          0          0          0
  undercover       :       0.00       0.00          0          0          0
  vbounds          :      42.22       0.00          1          0          0
  veclendiving     :       7.58       0.00          3          0          0
  zeroobj          :       0.00       0.00          0          0          0
  zirounding       :       0.13       0.00        680          0          0
  other solutions  :          -          -          -          0          -
LP                 :       Time      Calls Iterations  Iter/call   Iter/sec  Time-0-It Calls-0-It    ItLimit
  primal LP        :       0.00          0          0       0.00          -       0.00          0
  dual LP          :    1134.86       2936    1467844    1037.35    1293.41      12.48       1521
  lex dual LP      :       0.00          0          0       0.00          -
  barrier LP       :       0.00          0          0       0.00          -       0.00          0
  resolve instable :       0.00          0          0       0.00          -
  diving/probing LP:     285.26         80     196147    2451.84     687.61
  strong branching :     886.76       1329     853604     642.29     962.61          -          -       1445
    (at root node) :          -         23      19198     834.70          -
  conflict analysis:      49.66        742       7420      10.00     149.42
B&B Tree           :
  number of runs   :          1
  nodes            :       1316 (680 internal, 636 leaves)
  feasible leaves  :          1
  infeas. leaves   :         88
  objective leaves :        547
  nodes (total)    :       1316 (680 internal, 636 leaves)
  nodes left       :          0
  max depth        :         67
  max depth (total):         67
  backtracks       :        253 (19.2%)
  early backtracks :          0 (0.0%)
  nodes exc. ref.  :          0 (0.0%)
  delayed cutoffs  :          0
  repropagations   :         27 (12 domain reductions, 0 cutoffs)
  avg switch length:       6.56
  switching time   :       6.70
Root Node          :
  First LP value   : +8.66666666666667e+00
  First LP Iters   :       1981 (433.95 Iter/sec)
  First LP Time    :       4.57
  Final Dual Bound : +8.79775619148823e+00
  Final Root Iters :       1981
  Root LP Estimate : +1.32625285672848e+01
Solution           :
  Solutions found  :          3 (3 improvements)
  First Solution   : +4.00000000000000e+01   (in run 1, after 1 nodes, 37.50 seconds, depth 6, found by <clique>)
  Gap First Sol.   :     900.00 %
  Gap Last Sol.    :      33.41 %
  Primal Bound     : +1.50000000000000e+01   (in run 1, after 339 nodes, 1673.48 seconds, depth 9, found by <relaxation>)
  Dual Bound       : +1.50000000000000e+01
  Gap              :       0.00 %
Integrals          :      Total       Avg%
  primal-dual      :  107455.06      40.57
  primal-ref       :          -          - (not evaluated)
  dual-ref         :          -          - (not evaluated)
written solution information to file <results/final_miplib_symretope_if_extended_generating_set_cpx_v802__settings_final_nosym_norestarts__0__square37.mps.gz.sol>
@04 1686651923
